(set-logic ALL)
(set-option :produce-models true)
(declare-sort BoundSet 0)
(declare-sort UnboundSet 0)
(set-option :finite-model-find true)
(declare-fun IsSmokes (BoundSet) Bool)
(declare-fun IsInBlueShirt (BoundSet) Bool)
(declare-fun IsInBlue (BoundSet) Bool)
(assert (not (=> (and (exists ((a BoundSet)) (exists ((b BoundSet)) (and (IsSmokes a) (IsInBlueShirt b)))) (and (forall ((e BoundSet)) (forall ((f BoundSet)) (=> (IsInBlueShirt e) (IsInBlue f)))) (forall ((h BoundSet)) (forall ((g BoundSet)) (=> (IsInBlue g) (IsInBlueShirt h)))))) (exists ((d BoundSet)) (exists ((a BoundSet)) (and (IsInBlue d) (IsSmokes a)))))))
(check-sat)
(get-model)